c Lingeling SAT Solver
c 
c Version azf 92032848c138b2f33629ad24394d60a3787a1046
c 
c Copyright (C) 2010-2014 Armin Biere JKU Linz Austria.
c All rights reserved.
c 
c released Don Mai 22 22:08:00 CEST 2014
c compiled Mon Oct  6 05:55:43 PDT 2014
c 
c gcc (Ubuntu 4.8.2-19ubuntu1) 4.8.2
c -Wall -O3 -DNDBLSCR -DNLGLOG -DNDEBUG -DNCHKSOL -DNLGLPICOSAT -DNLGLDRUPLIG
c -DNLGLYALSAT
c Linux ubuntu 3.13.0-32-generic x86_64
c 
c reading input file benchmark-sat/translations/gc-DSJC125.5-10.cnf
c no embedded options
c found 'p cnf 1250 44660' header
c read 1250 variables, 44660 clauses, 90320 literals in 0.00 seconds
c 
c  seconds         irredundant          redundant clauses agility   height
c          variables clauses conflicts large ternary binary    glue         MB
c 
c S    0.0    1250    44660         0       0      0     0   0  0.0   0.0    1
c P    1.0    1125    38910      1001     859      0  4500   4 20.4  32.6    2
c P    2.0    1125    38910      1001     859      0  4500   4 20.4  32.6    2
c S    5.0    1125    38910     31455    8100      0  4500   3 15.5  24.5    4
c S   10.0    1125    38910    117610   18315      0  4500   4 17.6  29.2    6
c S   20.0    1125    38910    273934   21442      0  4500   5 17.2  27.8    8
c S   30.0    1125    38910    420080   35254      0  4500   4 16.0  26.4   11
c S   40.0    1125    38910    581648   33269      0  4500   3 15.5  24.9   13
c S   50.0    1125    38910    722947   35350      0  4500   3 15.7  25.2   16
c S   60.0    1125    38910    854725   42593      0  4500   3 15.6  26.3   13
c S  120.0    1125    38910   1549150   56212      9  4502   3 16.3  26.3   19
c S  180.0    1125    38910   2191573   49349      9  4502   3 16.3  26.1   21
c S  240.0    1125    38910   2780704   87575      9  4502   3 16.7  26.1   32
c S  300.0    1125    38910   3347431   88551      9  4502   3 17.7  27.2   29
c S  600.0    1125    38910   5839142  125516     10  4502   3 19.7  29.8   45
c S  900.0    1124    38910   8288979  125394     37  4511   3 19.1  28.5   37
